2 
5 
8 
11 
18 
19 
22 2147483671 
23 
24 
25 2147483671 
26 2147483671 2147483727 
27 2147483671 
32 2147483671 
49 2147483649 2147483669 2147483670 2147483674 2147483675 2147483676 2147483677 2147483729 2147483733 
50 
51 
52 2147483649 2147483669 2147483670 2147483674 2147483675 2147483676 2147483677 2147483729 2147483733 
53 2147483649 2147483669 2147483670 2147483674 2147483675 2147483676 2147483677 2147483682 2147483683 2147483704 2147483715 2147483718 2147483729 2147483733 
54 2147483649 2147483669 2147483670 2147483674 2147483675 2147483676 2147483677 2147483729 2147483733 
57 2147483649 2147483669 2147483670 2147483674 2147483675 2147483676 2147483677 2147483683 2147483715 2147483729 2147483733 
61 
127 2147483649 2147483669 2147483670 2147483674 2147483675 2147483676 2147483677 2147483729 2147483733 
128 2147483649 2147483669 2147483670 2147483674 2147483675 2147483676 2147483677 2147483729 2147483733 
129 2147483649 2147483669 2147483670 2147483674 2147483675 2147483676 2147483677 2147483729 2147483733 
130 2147483649 2147483669 2147483670 2147483674 2147483675 2147483676 2147483677 2147483729 2147483733 
131 
132 
133 
134 
247 
248 
249 
250 
251 
252 
253 
254 
263 2147483671 
264 2147483671 
265 2147483671 
266 2147483671 
267 
268 
269 
270 
2147483649 2147483654 2147483655 2147483658 2147483659 2147483660 2147483661 2147483665 2147483669 2147483670 2147483671 2147483674 2147483675 2147483676 2147483677 2147483679 2147483681 2147483682 2147483686 2147483688 2147483694 2147483697 2147483698 2147483701 2147483704 2147483706 2147483711 2147483714 2147483715 2147483717 2147483718 2147483720 2147483729 2147483731 2147483733 57 52 49 54 53 127 128 129 130 2147483654 2147483655 2147483658 2147483659 2147483660 2147483661 2147483665 2147483669 2147483670 2147483671 2147483674 2147483675 2147483676 2147483677 2147483679 2147483681 2147483682 2147483686 2147483688 2147483694 2147483697 2147483698 2147483701 2147483704 2147483706 2147483711 2147483714 2147483715 2147483717 2147483718 2147483720 2147483729 2147483731 2147483733 
2147483654 2147483649 2147483649 2147483669 2147483670 2147483671 2147483674 2147483675 2147483676 2147483677 2147483729 2147483733 2147483669 2147483670 2147483671 2147483674 2147483675 2147483676 2147483677 2147483729 2147483733 
2147483655 2147483649 2147483649 2147483669 2147483670 2147483671 2147483674 2147483675 2147483676 2147483677 2147483729 2147483733 2147483669 2147483670 2147483671 2147483674 2147483675 2147483676 2147483677 2147483729 2147483733 
2147483658 2147483649 2147483649 2147483669 2147483670 2147483671 2147483674 2147483675 2147483676 2147483677 2147483729 2147483733 2147483669 2147483670 2147483671 2147483674 2147483675 2147483676 2147483677 2147483729 2147483733 
2147483659 2147483649 2147483649 2147483669 2147483670 2147483671 2147483674 2147483675 2147483676 2147483677 2147483729 2147483733 2147483669 2147483670 2147483671 2147483674 2147483675 2147483676 2147483677 2147483729 2147483733 
2147483660 2147483649 2147483649 2147483669 2147483670 2147483671 2147483674 2147483675 2147483676 2147483677 2147483729 2147483733 2147483669 2147483670 2147483671 2147483674 2147483675 2147483676 2147483677 2147483729 2147483733 
2147483661 2147483649 2147483649 2147483669 2147483670 2147483671 2147483674 2147483675 2147483676 2147483677 2147483729 2147483733 2147483669 2147483670 2147483671 2147483674 2147483675 2147483676 2147483677 2147483729 2147483733 
2147483665 2147483649 2147483649 2147483669 2147483670 2147483671 2147483674 2147483675 2147483676 2147483677 2147483729 2147483733 2147483669 2147483670 2147483671 2147483674 2147483675 2147483676 2147483677 2147483729 2147483733 
2147483669 2147483649 2147483654 2147483655 2147483658 2147483659 2147483660 2147483661 2147483665 2147483649 2147483654 2147483655 2147483658 2147483659 2147483660 2147483661 2147483665 2147483670 2147483671 2147483674 2147483675 2147483676 2147483677 2147483679 2147483681 2147483682 2147483683 2147483686 2147483688 2147483694 2147483697 2147483698 2147483701 2147483704 2147483706 2147483711 2147483714 2147483715 2147483717 2147483718 2147483720 2147483726 2147483729 2147483731 2147483733 53 49 52 54 57 127 128 129 130 2147483670 2147483671 2147483674 2147483675 2147483676 2147483677 2147483679 2147483681 2147483682 2147483683 2147483686 2147483688 2147483694 2147483697 2147483698 2147483701 2147483704 2147483706 2147483711 2147483714 2147483715 2147483717 2147483718 2147483720 2147483726 2147483729 2147483731 2147483733 
2147483670 2147483649 2147483654 2147483655 2147483658 2147483659 2147483660 2147483661 2147483665 2147483669 2147483649 2147483654 2147483655 2147483658 2147483659 2147483660 2147483661 2147483665 2147483669 2147483671 2147483674 2147483675 2147483676 2147483677 2147483679 2147483681 2147483682 2147483683 2147483686 2147483688 2147483694 2147483697 2147483698 2147483701 2147483704 2147483706 2147483711 2147483714 2147483715 2147483717 2147483718 2147483720 2147483729 2147483731 2147483733 57 49 52 54 53 127 128 129 130 2147483671 2147483674 2147483675 2147483676 2147483677 2147483679 2147483681 2147483682 2147483683 2147483686 2147483688 2147483694 2147483697 2147483698 2147483701 2147483704 2147483706 2147483711 2147483714 2147483715 2147483717 2147483718 2147483720 2147483729 2147483731 2147483733 
2147483671 2147483649 2147483654 2147483655 2147483658 2147483659 2147483660 2147483661 2147483665 2147483669 2147483670 2147483649 2147483654 2147483655 2147483658 2147483659 2147483660 2147483661 2147483665 2147483669 2147483670 2147483674 2147483675 2147483676 2147483677 2147483679 2147483681 2147483682 2147483683 2147483686 2147483688 2147483694 2147483697 2147483698 2147483701 2147483704 2147483706 2147483711 2147483714 2147483715 2147483717 2147483718 2147483720 2147483729 2147483731 2147483733 27 22 25 32 26 263 264 265 266 2147483674 2147483675 2147483676 2147483677 2147483679 2147483681 2147483682 2147483683 2147483686 2147483688 2147483694 2147483697 2147483698 2147483701 2147483704 2147483706 2147483711 2147483714 2147483715 2147483717 2147483718 2147483720 2147483729 2147483731 2147483733 
2147483674 2147483649 2147483654 2147483655 2147483658 2147483659 2147483660 2147483661 2147483665 2147483669 2147483670 2147483671 2147483649 2147483654 2147483655 2147483658 2147483659 2147483660 2147483661 2147483665 2147483669 2147483670 2147483671 2147483675 2147483676 2147483677 2147483679 2147483681 2147483682 2147483683 2147483686 2147483688 2147483694 2147483697 2147483698 2147483701 2147483704 2147483706 2147483711 2147483714 2147483715 2147483717 2147483718 2147483720 2147483729 2147483731 2147483733 128 49 52 54 57 53 127 129 130 2147483675 2147483676 2147483677 2147483679 2147483681 2147483682 2147483683 2147483686 2147483688 2147483694 2147483697 2147483698 2147483701 2147483704 2147483706 2147483711 2147483714 2147483715 2147483717 2147483718 2147483720 2147483729 2147483731 2147483733 
2147483675 2147483649 2147483654 2147483655 2147483658 2147483659 2147483660 2147483661 2147483665 2147483669 2147483670 2147483671 2147483674 2147483649 2147483654 2147483655 2147483658 2147483659 2147483660 2147483661 2147483665 2147483669 2147483670 2147483671 2147483674 2147483676 2147483677 2147483679 2147483681 2147483682 2147483683 2147483686 2147483688 2147483694 2147483697 2147483698 2147483701 2147483704 2147483706 2147483711 2147483714 2147483715 2147483717 2147483718 2147483720 2147483729 2147483731 2147483733 49 52 54 57 53 127 128 129 130 2147483676 2147483677 2147483679 2147483681 2147483682 2147483683 2147483686 2147483688 2147483694 2147483697 2147483698 2147483701 2147483704 2147483706 2147483711 2147483714 2147483715 2147483717 2147483718 2147483720 2147483729 2147483731 2147483733 
2147483676 2147483649 2147483654 2147483655 2147483658 2147483659 2147483660 2147483661 2147483665 2147483669 2147483670 2147483671 2147483674 2147483675 2147483649 2147483654 2147483655 2147483658 2147483659 2147483660 2147483661 2147483665 2147483669 2147483670 2147483671 2147483674 2147483675 2147483677 2147483679 2147483681 2147483682 2147483683 2147483686 2147483688 2147483694 2147483697 2147483698 2147483701 2147483704 2147483706 2147483711 2147483714 2147483715 2147483717 2147483718 2147483720 2147483729 2147483731 2147483733 49 52 54 57 53 127 128 129 130 2147483677 2147483679 2147483681 2147483682 2147483683 2147483686 2147483688 2147483694 2147483697 2147483698 2147483701 2147483704 2147483706 2147483711 2147483714 2147483715 2147483717 2147483718 2147483720 2147483729 2147483731 2147483733 
2147483677 2147483649 2147483654 2147483655 2147483658 2147483659 2147483660 2147483661 2147483665 2147483669 2147483670 2147483671 2147483674 2147483675 2147483676 2147483649 2147483654 2147483655 2147483658 2147483659 2147483660 2147483661 2147483665 2147483669 2147483670 2147483671 2147483674 2147483675 2147483676 2147483679 2147483681 2147483682 2147483683 2147483686 2147483688 2147483694 2147483697 2147483698 2147483701 2147483704 2147483706 2147483711 2147483714 2147483715 2147483717 2147483718 2147483720 2147483729 2147483731 2147483733 49 52 54 57 53 127 128 129 130 2147483679 2147483681 2147483682 2147483683 2147483686 2147483688 2147483694 2147483697 2147483698 2147483701 2147483704 2147483706 2147483711 2147483714 2147483715 2147483717 2147483718 2147483720 2147483729 2147483731 2147483733 
2147483679 2147483649 2147483669 2147483670 2147483671 2147483674 2147483675 2147483676 2147483677 2147483649 2147483669 2147483670 2147483671 2147483674 2147483675 2147483676 2147483677 2147483729 2147483729 
2147483681 2147483649 2147483669 2147483670 2147483671 2147483674 2147483675 2147483676 2147483677 2147483649 2147483669 2147483670 2147483671 2147483674 2147483675 2147483676 2147483677 2147483682 2147483683 2147483729 2147483682 2147483683 2147483729 
2147483682 2147483649 2147483669 2147483670 2147483671 2147483674 2147483675 2147483676 2147483677 2147483681 2147483649 2147483669 2147483670 2147483671 2147483674 2147483675 2147483676 2147483677 2147483681 2147483683 2147483729 53 2147483683 2147483729 
2147483683 2147483669 2147483670 2147483671 2147483674 2147483675 2147483676 2147483677 2147483681 2147483682 2147483669 2147483670 2147483671 2147483674 2147483675 2147483676 2147483677 2147483681 2147483682 2147483729 57 53 2147483729 
2147483686 2147483649 2147483669 2147483670 2147483671 2147483674 2147483675 2147483676 2147483677 2147483649 2147483669 2147483670 2147483671 2147483674 2147483675 2147483676 2147483677 2147483688 2147483729 2147483688 2147483729 
2147483688 2147483649 2147483669 2147483670 2147483671 2147483674 2147483675 2147483676 2147483677 2147483686 2147483649 2147483669 2147483670 2147483671 2147483674 2147483675 2147483676 2147483677 2147483686 2147483729 2147483729 
2147483694 2147483649 2147483669 2147483670 2147483671 2147483674 2147483675 2147483676 2147483677 2147483649 2147483669 2147483670 2147483671 2147483674 2147483675 2147483676 2147483677 2147483729 2147483733 2147483729 2147483733 
2147483697 2147483649 2147483669 2147483670 2147483671 2147483674 2147483675 2147483676 2147483677 2147483649 2147483669 2147483670 2147483671 2147483674 2147483675 2147483676 2147483677 2147483729 2147483733 2147483729 2147483733 
2147483698 2147483649 2147483669 2147483670 2147483671 2147483674 2147483675 2147483676 2147483677 2147483649 2147483669 2147483670 2147483671 2147483674 2147483675 2147483676 2147483677 2147483729 2147483733 2147483729 2147483733 
2147483701 2147483649 2147483669 2147483670 2147483671 2147483674 2147483675 2147483676 2147483677 2147483649 2147483669 2147483670 2147483671 2147483674 2147483675 2147483676 2147483677 2147483729 2147483733 2147483729 2147483733 
2147483704 2147483649 2147483669 2147483670 2147483671 2147483674 2147483675 2147483676 2147483677 2147483649 2147483669 2147483670 2147483671 2147483674 2147483675 2147483676 2147483677 2147483729 2147483733 53 2147483729 2147483733 
2147483706 2147483649 2147483669 2147483670 2147483671 2147483674 2147483675 2147483676 2147483677 2147483649 2147483669 2147483670 2147483671 2147483674 2147483675 2147483676 2147483677 2147483729 2147483733 2147483729 2147483733 
2147483711 2147483649 2147483669 2147483670 2147483671 2147483674 2147483675 2147483676 2147483677 2147483649 2147483669 2147483670 2147483671 2147483674 2147483675 2147483676 2147483677 2147483729 2147483733 2147483729 2147483733 
2147483714 2147483649 2147483669 2147483670 2147483671 2147483674 2147483675 2147483676 2147483677 2147483649 2147483669 2147483670 2147483671 2147483674 2147483675 2147483676 2147483677 2147483729 2147483733 2147483729 2147483733 
2147483715 2147483649 2147483669 2147483670 2147483671 2147483674 2147483675 2147483676 2147483677 2147483649 2147483669 2147483670 2147483671 2147483674 2147483675 2147483676 2147483677 2147483729 2147483733 57 53 2147483729 2147483733 
2147483717 2147483649 2147483669 2147483670 2147483671 2147483674 2147483675 2147483676 2147483677 2147483649 2147483669 2147483670 2147483671 2147483674 2147483675 2147483676 2147483677 2147483729 2147483733 2147483729 2147483733 
2147483718 2147483649 2147483669 2147483670 2147483671 2147483674 2147483675 2147483676 2147483677 2147483649 2147483669 2147483670 2147483671 2147483674 2147483675 2147483676 2147483677 2147483729 2147483733 53 2147483729 2147483733 
2147483720 2147483649 2147483669 2147483670 2147483671 2147483674 2147483675 2147483676 2147483677 2147483649 2147483669 2147483670 2147483671 2147483674 2147483675 2147483676 2147483677 2147483729 2147483733 2147483729 2147483733 
2147483726 2147483669 2147483669 2147483727 2147483727 
2147483727 2147483726 2147483726 26 
2147483729 2147483649 2147483654 2147483655 2147483658 2147483659 2147483660 2147483661 2147483665 2147483669 2147483670 2147483671 2147483674 2147483675 2147483676 2147483677 2147483679 2147483681 2147483682 2147483683 2147483686 2147483688 2147483694 2147483697 2147483698 2147483701 2147483704 2147483706 2147483711 2147483714 2147483715 2147483717 2147483718 2147483720 2147483649 2147483654 2147483655 2147483658 2147483659 2147483660 2147483661 2147483665 2147483669 2147483670 2147483671 2147483674 2147483675 2147483676 2147483677 2147483679 2147483681 2147483682 2147483683 2147483686 2147483688 2147483694 2147483697 2147483698 2147483701 2147483704 2147483706 2147483711 2147483714 2147483715 2147483717 2147483718 2147483720 2147483731 2147483733 54 57 127 49 52 53 128 129 130 2147483731 2147483733 
2147483731 2147483649 2147483669 2147483670 2147483671 2147483674 2147483675 2147483676 2147483677 2147483729 2147483649 2147483669 2147483670 2147483671 2147483674 2147483675 2147483676 2147483677 2147483729 2147483733 2147483733 
2147483733 2147483649 2147483654 2147483655 2147483658 2147483659 2147483660 2147483661 2147483665 2147483669 2147483670 2147483671 2147483674 2147483675 2147483676 2147483677 2147483694 2147483697 2147483698 2147483701 2147483704 2147483706 2147483711 2147483714 2147483715 2147483717 2147483718 2147483720 2147483729 2147483731 2147483649 2147483654 2147483655 2147483658 2147483659 2147483660 2147483661 2147483665 2147483669 2147483670 2147483671 2147483674 2147483675 2147483676 2147483677 2147483694 2147483697 2147483698 2147483701 2147483704 2147483706 2147483711 2147483714 2147483715 2147483717 2147483718 2147483720 2147483729 2147483731 49 52 54 57 53 127 128 129 130 
